15439
101001011000001001001000110000
20 25 20 2 14 5 14 17 0 17 5 17 8 20 0 8 0 0 5 0 7 0 5 17 5 8 2 24 5 5 25 7 20 25 20 20 24 24 17 14 0 8 24 25 24 14 7 8 25 17 25 2 17 5 20 20 17 0 17 14 0 5 20 7 0 0 24 0 24 5 8 8 5 17 24 8 24 8 2 24 20 0 2 17 2 17 2 7 20 25 17 24 17 5 17 24 14 7 5 20 8 17 17 25 2 25 17 0 14 8 14 14 0 0 25 24 24 24 5 24 5 8 25 20 8 17 25 5 0 7 0 25 24 2 14 14 7 5 20 17 0 8 20 17 8 0 25 5 2 5 